solution status: optimal solution found
objective value:                     164876.191612223
d11(0,0)                                            1 	(obj:0)
d11(1,1)                                            1 	(obj:0)
d11(2,3)                                            1 	(obj:0)
d11(2,4)                                            1 	(obj:0)
d11(2,5)                                            1 	(obj:0)
d11(3,7)                                            1 	(obj:0)
d11(3,8)                                            1 	(obj:0)
d11(3,9)                                            1 	(obj:0)
d11(3,10)                                           1 	(obj:0)
d11(3,11)                                           1 	(obj:0)
d11(3,12)                                           1 	(obj:0)
d11(3,13)                                           1 	(obj:0)
d11(3,14)                                           1 	(obj:0)
d11(4,15)                                           1 	(obj:0)
d11(4,17)                                           1 	(obj:0)
d11(4,19)                                           1 	(obj:0)
d11(4,21)                                           1 	(obj:0)
d11(4,23)                                           1 	(obj:0)
d11(4,27)                                           1 	(obj:0)
d12(4,16)                                           1 	(obj:0)
d12(4,18)                                           1 	(obj:0)
d12(4,20)                                           1 	(obj:0)
d12(4,22)                                           1 	(obj:0)
d12(4,24)                                           1 	(obj:0)
d12(4,26)                                           1 	(obj:0)
d12(4,28)                                           1 	(obj:0)
d12(4,30)                                           1 	(obj:0)
d21(3,7)                                            1 	(obj:0)
d21(3,8)                                            1 	(obj:0)
d21(3,9)                                            1 	(obj:0)
d21(3,11)                                           1 	(obj:0)
d21(4,15)                                           1 	(obj:0)
d21(4,16)                                           1 	(obj:0)
d21(4,17)                                           1 	(obj:0)
d21(4,18)                                           1 	(obj:0)
d21(4,19)                                           1 	(obj:0)
d21(4,20)                                           1 	(obj:0)
d21(4,23)                                           1 	(obj:0)
d21(4,24)                                           1 	(obj:0)
y2(4,16)                             1385.48851144895 	(obj:0)
y2(4,18)                             1385.48851144895 	(obj:0)
y2(4,20)                             1385.48851144895 	(obj:0)
y2(4,22)                             1385.48851144895 	(obj:0)
y2(4,24)                             1385.48851144895 	(obj:0)
y2(4,26)                             1385.48851144895 	(obj:0)
y2(4,28)                             1385.48851144895 	(obj:0)
y2(4,30)                             1385.48851144895 	(obj:0)
STE(1,1)                             5586.75010111115 	(obj:0)
STE(0,0)                                         7875 	(obj:0)
STE(1,2)                             7245.00000000017 	(obj:0)
STE(2,3)                             3298.50020222231 	(obj:0)
STE(2,4)                             4956.75010111116 	(obj:0)
STE(2,5)                             4956.75010111132 	(obj:0)
STE(2,6)                             6615.00000000017 	(obj:0)
STE(3,7)                            -323.999797777857 	(obj:0)
STE(3,8)                             1334.25010111096 	(obj:0)
STE(3,9)                             1334.25010111099 	(obj:0)
STE(3,10)                            2992.49999999981 	(obj:0)
STE(3,11)                            1334.25010111115 	(obj:0)
STE(3,12)                            2992.49999999997 	(obj:0)
STE(3,13)                                      2992.5 	(obj:0)
STE(3,14)                            4650.74989888882 	(obj:0)
STE(4,15)                           -953.999797777857 	(obj:0)
STE(4,16)                            362.214288098649 	(obj:0)
STE(4,17)                            704.250101110899 	(obj:0)
STE(4,18)                            2020.46418698747 	(obj:0)
STE(4,19)                             704.25010111099 	(obj:0)
STE(4,20)                             2020.4641869875 	(obj:0)
STE(4,21)                                      2362.5 	(obj:0)
STE(4,22)                            3678.71408587631 	(obj:0)
STE(4,23)                            704.250101111154 	(obj:0)
STE(4,24)                            2020.46418698766 	(obj:0)
STE(4,25)                                      2362.5 	(obj:0)
STE(4,26)                            3678.71408587648 	(obj:0)
STE(4,27)                                      2362.5 	(obj:0)
STE(4,28)                            3678.71408587651 	(obj:0)
STE(4,29)                            4020.74989888882 	(obj:0)
STE(4,30)                            5336.96398476532 	(obj:0)
y1(3,10)                             1200.82509100021 	(obj:0)
y1(3,11)                             2693.25000000015 	(obj:0)
y1(3,12)                             1200.82509100021 	(obj:0)
y1(3,13)                             2693.25000000015 	(obj:0)
y1(3,14)                             1200.82509100021 	(obj:0)
AVE(1)                               3265.91696791192 	(obj:0)
AVE(2)                               3332.74178563731 	(obj:0)
AVE(3)                               3444.11697932125 	(obj:0)
WB(4)                                3399.56511093778 	(obj:0)
AVE(4)                               3399.56511093778 	(obj:0)
WG(1)                                3265.91696791192 	(obj:10)
WG(2)                                3332.74178563731 	(obj:10)
WG(3)                                3444.11697932125 	(obj:10)
BG(1)                                930.375531067672 	(obj:10)
BG(2)                                863.550713342282 	(obj:10)
BG(3)                                1977.50724516874 	(obj:10)
BG(4)                                2673.40993877551 	(obj:10)
y1(1,1)                              1492.42490899996 	(obj:0)
y1(2,3)                              1492.42490899996 	(obj:0)
y1(2,5)                              1492.42490899996 	(obj:0)
y1(3,7)                              2693.25000000015 	(obj:0)
y1(3,8)                              1200.82509100021 	(obj:0)
y1(3,9)                              2693.25000000015 	(obj:0)
